
Gurobi 6.5.2 (linux64) logging started Tue Mar 21 10:45:28 2017


Gurobi 6.5.2 (linux64) logging started Tue Mar 21 10:45:28 2017

Optimize a model with 101 rows, 418 columns and 915 nonzeros
Coefficient statistics:
  Matrix range    [1e+00, 2e+00]
  Objective range [2e+00, 1e+02]
  Bounds range    [1e+00, 1e+00]
  RHS range       [1e+00, 1e+00]
Presolve removed 31 rows and 8 columns
Presolve time: 0.00s
Presolved: 70 rows, 410 columns, 829 nonzeros
Variable types: 0 continuous, 410 integer (410 binary)

Root relaxation: objective 7.920000e+02, 83 iterations, 0.00 seconds

    Nodes    |    Current Node    |     Objective Bounds      |     Work
 Expl Unexpl |  Obj  Depth IntInf | Incumbent    BestBd   Gap | It/Node Time

     0     0  792.00000    0   12          -  792.00000      -     -    0s
     0     0  828.50000    0   43          -  828.50000      -     -    0s
     0     0  832.50000    0   18          -  832.50000      -     -    0s
     0     0  833.37500    0   14          -  833.37500      -     -    0s
     0     0  833.59375    0   25          -  833.59375      -     -    0s
     0     0  833.88235    0   31          -  833.88235      -     -    0s
     0     2  833.88235    0   31          -  833.88235      -     -    0s
*   46    30              14     860.0000000  835.91667  2.80%   5.6    0s
H  184     9                     851.0000000  835.91667  1.77%   5.1    0s
*  326    24              17     850.0000000  835.91667  1.66%   4.5    0s
*  680    17              19     848.0000000  841.00000  0.83%   4.1    0s

Cutting planes:
  Gomory: 9
  Cover: 59
  MIR: 2
  Zero half: 4
  Lazy constraints: 49

Explored 761 nodes (3109 simplex iterations) in 0.15 seconds
Thread count was 4 (of 4 available processors)

Optimal solution found (tolerance 1.00e-04)
Best objective 8.480000000000e+02, best bound 8.480000000000e+02, gap 0.0%
